// Dezyne --- Dezyne command line tools
//
// Copyright © 2015 Jan Nieuwenhuizen <janneke@gnu.org>
//
// This file is part of Dezyne.
//
// Dezyne is free software: you can redistribute it and/or modify it
// under the terms of the GNU Affero General Public License as
// published by the Free Software Foundation, either version 3 of the
// License, or (at your option) any later version.
//
// Dezyne is distributed in the hope that it will be useful, but
// WITHOUT ANY WARRANTY; without even the implied warranty of
// MERCHANTABILITY or FITNESS FOR A PARTICULAR PURPOSE.  See the GNU
// Affero General Public License for more details.
//
// You should have received a copy of the GNU Affero General Public
// License along with Dezyne.  If not, see <http://www.gnu.org/licenses/>.
//
// Commentary:
//
// Code:

// /////////////////////////////////////////////////////////////////////////////
//
// File generated by   : Verum ASD:Suite Release 0, version 0.0.0.0
// Language            : asd
//
// Model name          : MultiStepOutParam
// Model file          : MultiStepOutParam.im
// Model last updated  : 2015-Oct-21 15:06:59
// Model fingerprint   : 84C3A524
//
// Version             : 1.0
// Project             :
// Author              :
// Execution model     : Multi-threaded
// Broadcasting        : No
//
// /////////////////////////////////////////////////////////////////////////////


//import GlobalTypes.dzn;

// used types:
extern xint $int$;

interface IMultiStepOutParam
{
  // Application interface IMultiStepOutParam
  enum IMultiStepOutParam_Values {Ok};

  in IMultiStepOutParam_Values Init();
  in void Term();
  in IMultiStepOutParam_Values GetData(out xint nr);
  in void RequestData();

  // Notification interface IMultiStepOutParam_NI
  out void ReceiveData(xint number);

  // Modelling Interface internal has been replaced by optional/inevitable

  behaviour
  {
    enum States {Unavailable, Available, Working};

    States state_ = States.Unavailable;

    [state_.Unavailable]
    {
      on Init:
      {
        reply(IMultiStepOutParam_Values.Ok);
        state_ = States.Available;
      }
      on Term,
          GetData,
          RequestData:
      {
        illegal;
      }
    }

    [state_.Available]
    {
      on Term:
      {
        state_ = States.Unavailable;
      }
      on GetData:
      {
        reply(IMultiStepOutParam_Values.Ok);
      }
      on RequestData:
      {
        state_ = States.Working;
      }
      on Init:
      {
        illegal;
      }
    }

    [state_.Working]
    {
      on GetData:
      {
        reply(IMultiStepOutParam_Values.Ok);
      }
      on inevitable:
      {
        ReceiveData;
        state_ = States.Available;
      }
      on Init,
          Term,
          RequestData:
      {
        illegal;
      }
    }

  }
}
